
n_res = 6;
rcap = [56, 58, 591, 575, 574, 579];
rtype = [1, 1, 2, 2, 2, 2];
n_tasks = 50;
modes =  [{1, 2, 3, 4, 5, 6}, {7, 8, 9, 10, 11, 12}, {13, 14, 15, 16, 17, 18}, {19, 20, 21, 22, 23, 24}, {25, 26, 27, 28, 29, 30}, {31, 32, 33, 34, 35, 36}, {37, 38, 39, 40, 41, 42}, {43, 44, 45, 46, 47, 48}, {49, 50, 51, 52, 53, 54}, {55, 56, 57, 58, 59, 60}, {61, 62, 63, 64, 65, 66}, {67, 68, 69, 70, 71, 72}, {73, 74, 75, 76, 77, 78}, {79, 80, 81, 82, 83, 84}, {85, 86, 87, 88, 89, 90}, {91, 92, 93, 94, 95, 96}, {97, 98, 99, 100, 101, 102}, {103, 104, 105, 106, 107, 108}, {109, 110, 111, 112, 113, 114}, {115, 116, 117, 118, 119, 120}, {121, 122, 123, 124, 125, 126}, {127, 128, 129, 130, 131, 132}, {133, 134, 135, 136, 137, 138}, {139, 140, 141, 142, 143, 144}, {145, 146, 147, 148, 149, 150}, {151, 152, 153, 154, 155, 156}, {157, 158, 159, 160, 161, 162}, {163, 164, 165, 166, 167, 168}, {169, 170, 171, 172, 173, 174}, {175, 176, 177, 178, 179, 180}, {181, 182, 183, 184, 185, 186}, {187, 188, 189, 190, 191, 192}, {193, 194, 195, 196, 197, 198}, {199, 200, 201, 202, 203, 204}, {205, 206, 207, 208, 209, 210}, {211, 212, 213, 214, 215, 216}, {217, 218, 219, 220, 221, 222}, {223, 224, 225, 226, 227, 228}, {229, 230, 231, 232, 233, 234}, {235, 236, 237, 238, 239, 240}, {241, 242, 243, 244, 245, 246}, {247, 248, 249, 250, 251, 252}, {253, 254, 255, 256, 257, 258}, {259, 260, 261, 262, 263, 264}, {265, 266, 267, 268, 269, 270}, {271, 272, 273, 274, 275, 276}, {277, 278, 279, 280, 281, 282}, {283, 284, 285, 286, 287, 288}, {289, 290, 291, 292, 293, 294}, {295, 296, 297, 298, 299, 300}];
succ =  [{32, 23, 21, 16, 12, 11, 9, 7}, {39, 32, 25, 23, 22, 18, 16, 12}, {39, 27, 22, 18, 11, 8}, {34, 32, 29, 22, 19, 11}, {34, 32, 30, 29, 28, 24, 22, 19}, {32, 28, 27, 24, 22, 18}, {39, 33, 30, 29, 28, 22, 19}, {38, 33, 32, 30, 29, 28, 19}, {38, 34, 33, 29, 28, 18}, {39, 38, 30, 28, 26, 24}, {38, 30, 28, 26, 24}, {38, 34, 28, 27, 19}, {50, 30, 29, 25, 24}, {39, 33, 29, 18}, {47, 33, 32, 31, 30, 29, 26}, {29, 27, 26, 24}, {25, 24, 23}, {48, 47, 31, 30, 26}, {48, 47, 31, 26}, {47, 38, 31, 26}, {48, 47, 45, 26}, {48, 47, 38, 37, 35, 31}, {50, 49, 47, 37, 35, 31}, {47, 37, 35, 33, 31}, {49, 48, 47, 44, 38, 37, 36}, {50, 49, 46, 44, 37, 35}, {49, 37, 36, 31}, {48, 47, 45, 44, 43, 36}, {48, 46, 45, 43, 42, 41, 40}, {46, 44, 43, 36}, {46, 45, 44, 42, 41, 40}, {48, 44, 37}, {48, 43, 42, 41, 40}, {45, 42, 41, 40}, {36}, {42, 41, 40}, {43, 41, 40}, {46, 45}, {47, 44}, {}, {}, {}, {}, {}, {}, {}, {}, {}, {}, {}];
n_opt = 300;
dur = [5, 6, 14, 15, 16, 18, 4, 5, 6, 7, 16, 17, 5, 8, 14, 15, 19, 20, 7, 8, 9, 12, 13, 20, 1, 2, 3, 10, 11, 12, 7, 10, 12, 15, 18, 20, 1, 5, 6, 9, 17, 20, 1, 2, 8, 9, 17, 18, 5, 7, 9, 16, 18, 19, 1, 9, 10, 17, 19, 20, 1, 4, 9, 11, 12, 15, 2, 3, 4, 15, 16, 19, 5, 6, 9, 10, 11, 12, 1, 3, 9, 10, 13, 15, 7, 8, 9, 14, 15, 18, 2, 3, 7, 11, 16, 20, 4, 8, 9, 10, 14, 20, 1, 3, 5, 11, 12, 16, 1, 2, 8, 10, 15, 18, 1, 2, 7, 10, 17, 19, 3, 5, 10, 11, 15, 17, 9, 10, 11, 18, 19, 20, 4, 6, 7, 9, 10, 15, 7, 8, 9, 10, 14, 16, 5, 6, 7, 11, 14, 15, 3, 4, 12, 13, 14, 18, 1, 5, 7, 9, 10, 15, 4, 8, 13, 14, 15, 16, 1, 2, 7, 8, 12, 13, 2, 3, 4, 10, 19, 20, 2, 8, 9, 10, 12, 20, 5, 7, 8, 14, 17, 20, 9, 11, 13, 15, 18, 20, 1, 5, 8, 13, 14, 20, 4, 9, 11, 12, 16, 19, 2, 6, 8, 9, 18, 19, 6, 7, 8, 11, 13, 14, 4, 9, 11, 14, 17, 20, 4, 5, 7, 13, 14, 17, 1, 2, 3, 7, 11, 19, 1, 5, 10, 15, 18, 19, 1, 9, 11, 12, 13, 14, 7, 10, 12, 14, 17, 20, 1, 2, 11, 15, 16, 19, 2, 10, 16, 18, 19, 20, 2, 3, 6, 10, 17, 18, 7, 11, 12, 18, 19, 20, 3, 4, 6, 11, 12, 16, 1, 9, 12, 14, 15, 19, 4, 7, 9, 11, 12, 16];
rreq = [|8, 7, 6, 4, 4, 3, 7, 7, 6, 4, 3, 3, 17, 12, 11, 7, 7, 3, 18, 14, 13, 12, 8, 6, 14, 13, 13, 12, 11, 11, 18, 14, 14, 9, 8, 6, 17, 15, 11, 11, 7, 6, 6, 6, 6, 6, 6, 6, 16, 14, 11, 7, 7, 2, 11, 11, 11, 10, 10, 10, 3, 3, 3, 3, 3, 3, 11, 8, 8, 7, 6, 5, 13, 13, 12, 12, 11, 11, 12, 11, 10, 5, 3, 1, 17, 16, 15, 15, 15, 14, 7, 7, 6, 6, 4, 4, 13, 11, 9, 7, 5, 2, 17, 15, 12, 7, 4, 4, 18, 17, 16, 15, 15, 13, 19, 17, 16, 15, 14, 14, 17, 13, 11, 10, 6, 5, 16, 16, 15, 14, 13, 13, 18, 17, 16, 16, 16, 15, 4, 3, 3, 2, 2, 2, 12, 11, 10, 9, 8, 8, 8, 8, 5, 5, 4, 1, 11, 10, 10, 8, 7, 6, 7, 6, 6, 5, 3, 2, 19, 15, 13, 10, 7, 5, 15, 13, 11, 10, 10, 8, 13, 11, 10, 7, 6, 4, 18, 17, 16, 16, 15, 14, 5, 5, 5, 4, 4, 3, 12, 9, 7, 5, 2, 2, 10, 8, 8, 7, 6, 4, 18, 14, 11, 8, 4, 4, 19, 18, 18, 17, 16, 16, 16, 16, 13, 8, 6, 2, 7, 7, 6, 6, 5, 5, 17, 16, 13, 10, 7, 7, 6, 6, 6, 6, 6, 6, 11, 9, 7, 7, 5, 4, 10, 10, 9, 9, 7, 7, 19, 15, 14, 10, 8, 8, 13, 11, 9, 5, 4, 3, 7, 6, 6, 3, 2, 2, 11, 10, 8, 5, 5, 2, 18, 16, 14, 12, 10, 9, 13, 13, 12, 12, 11, 11, 13, 12, 11, 11, 10, 8
 |16, 15, 14, 12, 9, 9, 17, 15, 14, 9, 6, 2, 16, 14, 14, 13, 11, 11, 12, 11, 10, 9, 7, 6, 16, 15, 14, 14, 14, 13, 15, 12, 8, 7, 5, 2, 15, 12, 11, 7, 7, 4, 15, 15, 11, 11, 8, 7, 14, 14, 14, 14, 13, 13, 12, 10, 10, 9, 7, 6, 13, 13, 12, 12, 11, 11, 16, 11, 9, 7, 5, 4, 16, 16, 14, 11, 8, 6, 8, 6, 5, 4, 4, 2, 9, 9, 8, 7, 5, 4, 16, 15, 15, 14, 14, 13, 18, 14, 13, 10, 7, 7, 12, 12, 12, 12, 12, 12, 5, 4, 3, 3, 3, 2, 20, 19, 19, 18, 17, 17, 18, 16, 15, 14, 14, 13, 15, 15, 11, 8, 6, 4, 12, 11, 9, 6, 4, 4, 16, 12, 10, 10, 6, 5, 4, 4, 4, 4, 4, 4, 9, 7, 7, 6, 5, 4, 7, 7, 7, 7, 7, 7, 16, 14, 14, 13, 13, 12, 17, 13, 12, 10, 8, 7, 17, 15, 13, 9, 8, 6, 11, 9, 9, 9, 7, 7, 13, 13, 13, 13, 13, 13, 10, 9, 8, 6, 5, 4, 13, 13, 13, 13, 13, 13, 19, 14, 14, 11, 7, 5, 20, 19, 19, 18, 18, 18, 14, 11, 9, 8, 4, 3, 16, 14, 10, 8, 6, 5, 7, 6, 5, 5, 5, 4, 17, 14, 13, 10, 6, 5, 5, 5, 3, 3, 2, 1, 9, 9, 9, 8, 7, 7, 18, 18, 18, 17, 17, 17, 7, 6, 5, 4, 2, 1, 4, 4, 3, 3, 1, 1, 15, 15, 14, 12, 11, 11, 10, 10, 9, 7, 6, 5, 9, 9, 8, 7, 5, 5, 18, 16, 14, 12, 11, 9, 20, 19, 18, 17, 16, 15
 |5, 4, 4, 3, 2, 2, 20, 18, 17, 17, 16, 15, 20, 19, 19, 19, 19, 19, 10, 9, 9, 9, 9, 9, 19, 15, 14, 10, 8, 6, 8, 7, 6, 5, 4, 2, 11, 10, 9, 8, 7, 7, 16, 12, 11, 6, 5, 1, 5, 4, 4, 4, 4, 4, 15, 12, 11, 10, 9, 9, 3, 3, 3, 3, 2, 2, 8, 7, 6, 6, 5, 5, 17, 14, 13, 9, 7, 5, 17, 17, 14, 10, 9, 7, 11, 8, 6, 5, 3, 2, 19, 17, 17, 16, 14, 13, 16, 16, 16, 15, 14, 14, 19, 19, 19, 19, 19, 19, 13, 12, 12, 10, 10, 9, 8, 7, 6, 6, 4, 4, 15, 14, 10, 8, 5, 4, 13, 11, 10, 6, 4, 3, 12, 11, 11, 11, 11, 11, 10, 8, 7, 5, 5, 4, 17, 14, 12, 8, 6, 5, 14, 11, 11, 9, 7, 5, 18, 18, 18, 18, 18, 18, 12, 10, 8, 6, 5, 4, 14, 13, 12, 10, 8, 6, 6, 5, 3, 3, 1, 1, 9, 7, 6, 6, 4, 3, 14, 13, 11, 11, 9, 9, 6, 6, 5, 5, 4, 3, 15, 15, 15, 15, 15, 15, 19, 16, 15, 15, 13, 11, 11, 11, 11, 10, 9, 9, 7, 7, 7, 7, 7, 7, 11, 10, 8, 8, 6, 6, 10, 10, 10, 10, 10, 10, 14, 12, 10, 9, 8, 5, 19, 19, 19, 19, 19, 19, 19, 18, 18, 18, 17, 16, 14, 13, 13, 13, 13, 13, 15, 14, 14, 13, 11, 10, 17, 14, 14, 12, 12, 11, 13, 13, 12, 9, 8, 8, 20, 19, 19, 18, 18, 17, 11, 8, 7, 5, 5, 2, 8, 6, 6, 4, 4, 3, 12, 11, 11, 10, 9, 9
 |5, 4, 3, 2, 1, 1, 8, 8, 6, 6, 4, 4, 13, 11, 9, 9, 7, 6, 17, 16, 15, 14, 12, 11, 8, 7, 6, 6, 6, 5, 12, 10, 10, 9, 7, 5, 11, 11, 11, 11, 11, 11, 6, 6, 5, 4, 3, 2, 14, 13, 11, 10, 9, 8, 16, 14, 14, 14, 13, 12, 19, 16, 12, 8, 6, 3, 14, 11, 11, 10, 7, 6, 16, 12, 10, 9, 8, 5, 12, 11, 11, 11, 10, 10, 7, 7, 5, 5, 2, 2, 17, 16, 14, 10, 10, 8, 16, 14, 13, 11, 9, 8, 15, 15, 11, 8, 7, 2, 13, 12, 11, 10, 9, 7, 15, 15, 14, 13, 11, 11, 10, 8, 7, 7, 5, 5, 20, 18, 18, 17, 15, 14, 14, 14, 14, 13, 13, 13, 15, 11, 8, 8, 5, 3, 14, 11, 8, 6, 4, 3, 19, 17, 15, 13, 12, 10, 14, 14, 13, 13, 12, 12, 1, 1, 1, 1, 1, 1, 9, 8, 8, 8, 8, 8, 19, 16, 15, 15, 11, 11, 10, 9, 7, 6, 6, 5, 19, 18, 18, 18, 17, 17, 11, 11, 9, 7, 7, 6, 11, 9, 8, 6, 3, 2, 18, 18, 17, 17, 15, 15, 17, 16, 13, 10, 9, 7, 8, 8, 8, 7, 6, 6, 15, 14, 14, 14, 13, 12, 8, 8, 8, 8, 8, 8, 16, 16, 13, 13, 10, 9, 9, 9, 8, 8, 6, 6, 17, 16, 16, 16, 16, 16, 1, 1, 1, 1, 1, 1, 14, 11, 10, 8, 5, 3, 5, 4, 4, 3, 2, 2, 18, 18, 16, 14, 11, 11, 19, 15, 12, 12, 8, 6, 16, 13, 13, 11, 11, 9, 11, 10, 9, 7, 6, 6, 16, 14, 13, 10, 9, 5
 |17, 16, 15, 12, 10, 9, 15, 15, 15, 15, 14, 14, 11, 10, 10, 10, 9, 9, 8, 8, 7, 5, 5, 4, 14, 13, 11, 10, 8, 7, 20, 16, 15, 13, 11, 8, 8, 6, 5, 3, 2, 2, 14, 13, 10, 8, 6, 5, 20, 17, 16, 14, 14, 13, 8, 7, 5, 4, 3, 3, 13, 11, 9, 8, 7, 5, 3, 3, 3, 3, 2, 2, 16, 15, 14, 13, 11, 10, 12, 11, 9, 7, 5, 2, 17, 15, 14, 12, 9, 8, 20, 19, 18, 18, 18, 17, 19, 16, 13, 12, 9, 7, 10, 8, 8, 8, 6, 6, 8, 8, 6, 6, 5, 4, 7, 5, 5, 5, 4, 3, 9, 7, 7, 6, 5, 5, 19, 16, 14, 10, 10, 6, 17, 12, 10, 9, 5, 5, 18, 15, 13, 9, 8, 3, 19, 14, 13, 11, 9, 6, 16, 15, 15, 13, 13, 12, 20, 18, 18, 18, 16, 16, 8, 7, 6, 4, 3, 2, 7, 5, 4, 4, 3, 1, 11, 10, 10, 10, 9, 8, 18, 15, 12, 10, 8, 7, 15, 15, 15, 15, 15, 15, 11, 9, 8, 6, 4, 3, 2, 2, 2, 1, 1, 1, 17, 17, 17, 17, 17, 17, 12, 11, 9, 8, 6, 4, 11, 10, 9, 9, 7, 6, 4, 4, 4, 4, 4, 4, 19, 19, 18, 17, 15, 15, 11, 11, 11, 11, 11, 11, 10, 9, 9, 8, 6, 5, 19, 18, 18, 18, 17, 17, 9, 7, 5, 3, 2, 1, 16, 16, 12, 11, 8, 7, 17, 16, 15, 15, 13, 13, 7, 6, 6, 5, 5, 4, 9, 8, 7, 6, 3, 2, 15, 14, 14, 14, 14, 14, 11, 11, 11, 11, 11, 11, 9, 7, 6, 5, 3, 1
 |19, 17, 13, 12, 10, 9, 8, 8, 7, 5, 4, 3, 11, 11, 9, 7, 4, 4, 16, 15, 13, 12, 9, 9, 16, 14, 12, 11, 9, 6, 3, 3, 3, 3, 3, 3, 15, 14, 14, 14, 13, 13, 12, 12, 10, 9, 8, 8, 6, 5, 4, 4, 2, 2, 18, 17, 14, 13, 8, 8, 6, 5, 5, 4, 3, 1, 15, 14, 12, 12, 11, 10, 19, 18, 17, 17, 16, 16, 12, 12, 12, 12, 11, 11, 16, 15, 13, 8, 7, 3, 17, 16, 14, 12, 12, 9, 13, 10, 10, 7, 5, 5, 2, 2, 2, 1, 1, 1, 5, 4, 3, 2, 1, 1, 13, 11, 11, 9, 9, 8, 7, 6, 4, 4, 2, 2, 16, 15, 14, 13, 12, 10, 13, 13, 12, 12, 12, 11, 17, 17, 16, 16, 16, 15, 17, 14, 10, 6, 5, 1, 4, 4, 4, 4, 4, 4, 16, 15, 15, 14, 14, 14, 8, 7, 7, 7, 6, 6, 17, 17, 16, 15, 14, 13, 17, 17, 17, 17, 17, 17, 16, 13, 13, 10, 9, 6, 12, 12, 12, 11, 12, 12, 10, 10, 7, 4, 3, 2, 5, 4, 3, 2, 2, 1, 19, 17, 14, 9, 8, 2, 14, 13, 9, 7, 6, 5, 18, 16, 15, 15, 14, 13, 14, 12, 11, 9, 7, 5, 18, 13, 13, 10, 6, 5, 12, 9, 8, 8, 6, 6, 12, 12, 12, 12, 12, 12, 16, 15, 13, 12, 11, 10, 19, 18, 16, 16, 14, 14, 13, 11, 8, 8, 3, 3, 6, 5, 5, 4, 4, 4, 19, 17, 14, 10, 6, 4, 16, 16, 14, 13, 12, 11, 3, 3, 3, 3, 3, 3, 15, 15, 15, 15, 15, 15, 18, 16, 16, 15, 14, 13|];